NAME : a14
COMMENT : drilling problem (Ludwig)
TYPE : TSP
DIMENSION : 14
EDGE_WEIGHT_TYPE : EUC_2D
NODE_COORD_SECTION
  1 288 149
  2 288 129
  3 270 133
  4 220 169
  5 212 169
  6 204 169
  7 196 169
  8 188 169
  9 148 145
 10 140 145
 11 148 169
 12 164 169
 13 116 161
 14  56   9
EOF